************************************************************************
file with basedata            : EXPL4.BAS
initial value random generator: 140220053
************************************************************************
projects                      :  1
jobs (incl. supersource/sink ):  16
horizon                       :  54
RESOURCES
  - renewable                 :  2   R
  - nonrenewable              :  2   N
  - doubly constrained        :  0   D
************************************************************************
PROJECT INFORMATION:
pronr.  #jobs rel.date duedate tardcost  MPM-Time
    1     14      0       30        4       30
************************************************************************
PRECEDENCE RELATIONS:
jobnr.    #modes  #successors   successors
   1        1          1           2
   2        1          3           3   4  10
   3        1          2           8  11
   4        1          1           5
   5        1          3           6   7   8
   6        1          2           9  12
   7        1          2          11  12
   8        1          2          13  14
   9        1          2          11  13
  10        1          1          12
  11        1          1          14
  12        1          1          15
  13        1          1          15
  14        1          1          15
  15        1          1          16
  16        1          0        
************************************************************************
REQUESTS/DURATIONS:
jobnr. mode duration  R 1  R 2  N 1  N 2
------------------------------------------------------------------------
  1      1     0       0    0    0    0
  2      1     6       0   10    7    8
  3      1     5       5    0    9    8
  4      1     3       4    0    5    4
  5      1     2       3    0    4    3
  6      1     2      10    0    4    8
  7      1     1       6    0    6    4
  8      1     1       0    8    7    8
  9      1     2       4    0    4   10
 10      1     7       0    4    5    5
 11      1     2       8    0    4    6
 12      1     6       0    1    3    4
 13      1     4       0    6    3    9
 14      1     6       3    0    7    5
 15      1     7       9    0    9   10
 16      1     0       0    0    0    0
************************************************************************
RESOURCEAVAILABILITIES:
  R 1  R 2  N 1  N 2
   11   10   77   92
************************************************************************
OVERCAPACITY COSTS:
1->0.5
2->0.5
MAX OVERCAPACITY:
1->5
2->5
